trunk/models/upgrade_subset_float.ozn
int: t;
t = 1;
float: VHT2dollarFactor;
VHT2dollarFactor = 3650.000000;
float: interestRate;
interestRate = 0.040000;
float: Budget;
Budget = 10000000.00;
int: n;
n = 8;
set of int: Upgrades = 1 .. n;
var set of Upgrades: upgradeSet;
array[Upgrades, Upgrades] of float: PairMinusSumVHT;
PairMinusSumVHT = 
  array2d(
    1 .. 8, 1 .. 8, 
    [ 0.502685233951, - 4.74426476657, - 12.5116507635, 23.8368512392, 
      - 0.240038767457, 11.3576822355, 3.90917623788, - 5.50646775961, 
      - 4.74426476657, - 449.896392763, 40.3787162378, 19.5073902383, 
      - 2.809694767, 9.59424123913, 5.05793923885, - 7.37938375771, 
      - 12.5116507635, 40.3787162378, - 21673.4256838, 29.5174982399, 
      5.56441123784, - 2.45162275434, 84.8831902444, - 7.48790175468, 
      23.8368512392, 19.5073902383, 29.5174982399, 16.3517132401, 
      27.321604237, 31.2198802456, 23.0903162435, 30.6091502458, 
      - 0.240038767457, - 2.809694767, 5.56441123784, 27.321604237, 
      - 3539.87476376, 4.73170424253, 186.674283236, 65.7744162381, 
      11.3576822355, 9.59424123913, - 2.45162275434, 31.2198802456, 
      4.73170424253, - 153.580863759, 3279.94051725, 54.1082102433, 
      3.90917623788, 5.05793923885, 84.8831902444, 23.0903162435, 
      186.674283236, 3279.94051725, - 16824.5987338, - 82.4402737543, 
      - 5.50646775961, - 7.37938375771, - 7.48790175468, 30.6091502458, 
      65.7744162381, 54.1082102433, - 82.4402737543, - 3371.94649376 ]);
array[Upgrades] of string: upgradeName;
upgradeName = 
  [ "03_02_9005", "03_03_0101", "03_95_0001", "03_96_0024", "07_06_0014", 
    "07_94_0027", "07_96_0013", "07_97_0055" ];
array[Upgrades] of float: benefitVHT;
benefitVHT = 
  [ - 0.50268523395061493, 449.89639276266098, 21673.425683759153, 
    - 16.351713240146637, 3539.874763764441, 153.58086375892162, 
    16824.598733760417, 3371.9464937597513 ];
var float: totalBenefitDollarsPV;
array[Upgrades] of float: cost;
cost = 
  [ 999999.0, 465000.0, 4000000.0, 999999.98999999999, 472000.0, 700000.0, 
    748000.0, 3999999.96 ];
output 
  [ "totalBenefitDollarsPV = ", show(totalBenefitDollarsPV), "\n", 
    show([ upgradeName[i] | i in Upgrades where i in fix(upgradeSet) ]), 
    "\n", "totalCost = ", 
    show(sum(i in Upgrades where i in fix(upgradeSet)) (cost[i])), "\n" ];
